BAYES
625
2 2 2 2 2 2 2 2 2 2 2 2 2 2 2 2 2 2 2 2 2 2 2 2 2 2 2 2 2 2 2 2 2 2 2 2 2 2 2 2 2 2 2 2 2 2 2 2 2 2 2 2 2 2 2 2 2 2 2 2 2 2 2 2 2 2 2 2 2 2 2 2 2 2 2 2 2 2 2 2 2 2 2 2 2 2 2 2 2 2 2 2 2 2 2 2 2 2 2 2 2 2 2 2 2 2 2 2 2 2 2 2 2 2 2 2 2 2 2 2 2 2 2 2 2 2 2 2 2 2 2 2 2 2 2 2 2 2 2 2 2 2 2 2 2 2 2 2 2 2 2 2 2 2 2 2 2 2 2 2 2 2 2 2 2 2 2 2 2 2 2 2 2 2 2 2 2 2 2 2 2 2 2 2 2 2 2 2 2 2 2 2 2 2 2 2 2 2 2 2 2 2 2 2 2 2 2 2 2 2 2 2 2 2 2 2 2 2 2 2 2 2 2 2 2 2 2 2 2 2 2 2 2 2 2 2 2 2 2 2 2 2 2 2 2 2 2 2 2 2 2 2 2 2 2 2 2 2 2 2 2 2 2 2 2 2 2 2 2 2 2 2 2 2 2 2 2 2 2 2 2 2 2 2 2 2 2 2 2 2 2 2 2 2 2 2 2 2 2 2 2 2 2 2 2 2 2 2 2 2 2 2 2 2 2 2 2 2 2 2 2 2 2 2 2 2 2 2 2 2 2 2 2 2 2 2 2 2 2 2 2 2 2 2 2 2 2 2 2 2 2 2 2 2 2 2 2 2 2 2 2 2 2 2 2 2 2 2 2 2 2 2 2 2 2 2 2 2 2 2 2 2 2 2 2 2 2 2 2 2 2 2 2 2 2 2 2 2 2 2 2 2 2 2 2 2 2 2 2 2 2 2 2 2 2 2 2 2 2 2 2 2 2 2 2 2 2 2 2 2 2 2 2 2 2 2 2 2 2 2 2 2 2 2 2 2 2 2 2 2 2 2 2 2 2 2 2 2 2 2 2 2 2 2 2 2 2 2 2 2 2 2 2 2 2 2 2 2 2 2 2 2 2 2 2 2 2 2 2 2 2 2 2 2 2 2 2 2 2 2 2 2 2 2 2 2 2 2 2 2 2 2 2 2 2 2 2 2 2 2 2 2 2 2 2 2 2 2 2 2 2 2 2 2 2 2 2 2 2 2 2 2 2 2 2 2 2 2 2 2 2 2 2 2 2 2 2 2 2 2 2 2 2 2 2 2 2 2 2 2 2 2 2 2 2 2 2 2 2 2 2 2 2 2 2 2 2 2 2 2 2 2 2 2 2 2 2 2 2 2 2 2 2 2 2 2 2 2 2 2 2 2 2 2 2 2 2 2 2 2 2 2 2 2 2
625
1 0
2 0 1
2 1 2
2 2 3
2 3 4
2 4 5
2 5 6
2 6 7
2 7 8
2 8 9
2 9 10
2 10 11
2 11 12
2 12 13
2 13 14
2 14 15
2 15 16
2 16 17
2 17 18
2 18 19
2 19 20
2 20 21
2 21 22
2 22 23
2 23 24
2 0 25
3 1 25 26
3 2 26 27
3 3 27 28
3 4 28 29
3 5 29 30
3 6 30 31
3 7 31 32
3 8 32 33
3 9 33 34
3 10 34 35
3 11 35 36
3 12 36 37
3 13 37 38
3 14 38 39
3 15 39 40
3 16 40 41
3 17 41 42
3 18 42 43
3 19 43 44
3 20 44 45
3 21 45 46
3 22 46 47
3 23 47 48
3 24 48 49
2 25 50
3 26 50 51
3 27 51 52
3 28 52 53
3 29 53 54
3 30 54 55
3 31 55 56
3 32 56 57
3 33 57 58
3 34 58 59
3 35 59 60
3 36 60 61
3 37 61 62
3 38 62 63
3 39 63 64
3 40 64 65
3 41 65 66
3 42 66 67
3 43 67 68
3 44 68 69
3 45 69 70
3 46 70 71
3 47 71 72
3 48 72 73
3 49 73 74
2 50 75
3 51 75 76
3 52 76 77
3 53 77 78
3 54 78 79
3 55 79 80
3 56 80 81
3 57 81 82
3 58 82 83
3 59 83 84
3 60 84 85
3 61 85 86
3 62 86 87
3 63 87 88
3 64 88 89
3 65 89 90
3 66 90 91
3 67 91 92
3 68 92 93
3 69 93 94
3 70 94 95
3 71 95 96
3 72 96 97
3 73 97 98
3 74 98 99
2 75 100
3 76 100 101
3 77 101 102
3 78 102 103
3 79 103 104
3 80 104 105
3 81 105 106
3 82 106 107
3 83 107 108
3 84 108 109
3 85 109 110
3 86 110 111
3 87 111 112
3 88 112 113
3 89 113 114
3 90 114 115
3 91 115 116
3 92 116 117
3 93 117 118
3 94 118 119
3 95 119 120
3 96 120 121
3 97 121 122
3 98 122 123
3 99 123 124
2 100 125
3 101 125 126
3 102 126 127
3 103 127 128
3 104 128 129
3 105 129 130
3 106 130 131
3 107 131 132
3 108 132 133
3 109 133 134
3 110 134 135
3 111 135 136
3 112 136 137
3 113 137 138
3 114 138 139
3 115 139 140
3 116 140 141
3 117 141 142
3 118 142 143
3 119 143 144
3 120 144 145
3 121 145 146
3 122 146 147
3 123 147 148
3 124 148 149
2 125 150
3 126 150 151
3 127 151 152
3 128 152 153
3 129 153 154
3 130 154 155
3 131 155 156
3 132 156 157
3 133 157 158
3 134 158 159
3 135 159 160
3 136 160 161
3 137 161 162
3 138 162 163
3 139 163 164
3 140 164 165
3 141 165 166
3 142 166 167
3 143 167 168
3 144 168 169
3 145 169 170
3 146 170 171
3 147 171 172
3 148 172 173
3 149 173 174
2 150 175
3 151 175 176
3 152 176 177
3 153 177 178
3 154 178 179
3 155 179 180
3 156 180 181
3 157 181 182
3 158 182 183
3 159 183 184
3 160 184 185
3 161 185 186
3 162 186 187
3 163 187 188
3 164 188 189
3 165 189 190
3 166 190 191
3 167 191 192
3 168 192 193
3 169 193 194
3 170 194 195
3 171 195 196
3 172 196 197
3 173 197 198
3 174 198 199
2 175 200
3 176 200 201
3 177 201 202
3 178 202 203
3 179 203 204
3 180 204 205
3 181 205 206
3 182 206 207
3 183 207 208
3 184 208 209
3 185 209 210
3 186 210 211
3 187 211 212
3 188 212 213
3 189 213 214
3 190 214 215
3 191 215 216
3 192 216 217
3 193 217 218
3 194 218 219
3 195 219 220
3 196 220 221
3 197 221 222
3 198 222 223
3 199 223 224
2 200 225
3 201 225 226
3 202 226 227
3 203 227 228
3 204 228 229
3 205 229 230
3 206 230 231
3 207 231 232
3 208 232 233
3 209 233 234
3 210 234 235
3 211 235 236
3 212 236 237
3 213 237 238
3 214 238 239
3 215 239 240
3 216 240 241
3 217 241 242
3 218 242 243
3 219 243 244
3 220 244 245
3 221 245 246
3 222 246 247
3 223 247 248
3 224 248 249
2 225 250
3 226 250 251
3 227 251 252
3 228 252 253
3 229 253 254
3 230 254 255
3 231 255 256
3 232 256 257
3 233 257 258
3 234 258 259
3 235 259 260
3 236 260 261
3 237 261 262
3 238 262 263
3 239 263 264
3 240 264 265
3 241 265 266
3 242 266 267
3 243 267 268
3 244 268 269
3 245 269 270
3 246 270 271
3 247 271 272
3 248 272 273
3 249 273 274
2 250 275
3 251 275 276
3 252 276 277
3 253 277 278
3 254 278 279
3 255 279 280
3 256 280 281
3 257 281 282
3 258 282 283
3 259 283 284
3 260 284 285
3 261 285 286
3 262 286 287
3 263 287 288
3 264 288 289
3 265 289 290
3 266 290 291
3 267 291 292
3 268 292 293
3 269 293 294
3 270 294 295
3 271 295 296
3 272 296 297
3 273 297 298
3 274 298 299
2 275 300
3 276 300 301
3 277 301 302
3 278 302 303
3 279 303 304
3 280 304 305
3 281 305 306
3 282 306 307
3 283 307 308
3 284 308 309
3 285 309 310
3 286 310 311
3 287 311 312
3 288 312 313
3 289 313 314
3 290 314 315
3 291 315 316
3 292 316 317
3 293 317 318
3 294 318 319
3 295 319 320
3 296 320 321
3 297 321 322
3 298 322 323
3 299 323 324
2 300 325
3 301 325 326
3 302 326 327
3 303 327 328
3 304 328 329
3 305 329 330
3 306 330 331
3 307 331 332
3 308 332 333
3 309 333 334
3 310 334 335
3 311 335 336
3 312 336 337
3 313 337 338
3 314 338 339
3 315 339 340
3 316 340 341
3 317 341 342
3 318 342 343
3 319 343 344
3 320 344 345
3 321 345 346
3 322 346 347
3 323 347 348
3 324 348 349
2 325 350
3 326 350 351
3 327 351 352
3 328 352 353
3 329 353 354
3 330 354 355
3 331 355 356
3 332 356 357
3 333 357 358
3 334 358 359
3 335 359 360
3 336 360 361
3 337 361 362
3 338 362 363
3 339 363 364
3 340 364 365
3 341 365 366
3 342 366 367
3 343 367 368
3 344 368 369
3 345 369 370
3 346 370 371
3 347 371 372
3 348 372 373
3 349 373 374
2 350 375
3 351 375 376
3 352 376 377
3 353 377 378
3 354 378 379
3 355 379 380
3 356 380 381
3 357 381 382
3 358 382 383
3 359 383 384
3 360 384 385
3 361 385 386
3 362 386 387
3 363 387 388
3 364 388 389
3 365 389 390
3 366 390 391
3 367 391 392
3 368 392 393
3 369 393 394
3 370 394 395
3 371 395 396
3 372 396 397
3 373 397 398
3 374 398 399
2 375 400
3 376 400 401
3 377 401 402
3 378 402 403
3 379 403 404
3 380 404 405
3 381 405 406
3 382 406 407
3 383 407 408
3 384 408 409
3 385 409 410
3 386 410 411
3 387 411 412
3 388 412 413
3 389 413 414
3 390 414 415
3 391 415 416
3 392 416 417
3 393 417 418
3 394 418 419
3 395 419 420
3 396 420 421
3 397 421 422
3 398 422 423
3 399 423 424
2 400 425
3 401 425 426
3 402 426 427
3 403 427 428
3 404 428 429
3 405 429 430
3 406 430 431
3 407 431 432
3 408 432 433
3 409 433 434
3 410 434 435
3 411 435 436
3 412 436 437
3 413 437 438
3 414 438 439
3 415 439 440
3 416 440 441
3 417 441 442
3 418 442 443
3 419 443 444
3 420 444 445
3 421 445 446
3 422 446 447
3 423 447 448
3 424 448 449
2 425 450
3 426 450 451
3 427 451 452
3 428 452 453
3 429 453 454
3 430 454 455
3 431 455 456
3 432 456 457
3 433 457 458
3 434 458 459
3 435 459 460
3 436 460 461
3 437 461 462
3 438 462 463
3 439 463 464
3 440 464 465
3 441 465 466
3 442 466 467
3 443 467 468
3 444 468 469
3 445 469 470
3 446 470 471
3 447 471 472
3 448 472 473
3 449 473 474
2 450 475
3 451 475 476
3 452 476 477
3 453 477 478
3 454 478 479
3 455 479 480
3 456 480 481
3 457 481 482
3 458 482 483
3 459 483 484
3 460 484 485
3 461 485 486
3 462 486 487
3 463 487 488
3 464 488 489
3 465 489 490
3 466 490 491
3 467 491 492
3 468 492 493
3 469 493 494
3 470 494 495
3 471 495 496
3 472 496 497
3 473 497 498
3 474 498 499
2 475 500
3 476 500 501
3 477 501 502
3 478 502 503
3 479 503 504
3 480 504 505
3 481 505 506
3 482 506 507
3 483 507 508
3 484 508 509
3 485 509 510
3 486 510 511
3 487 511 512
3 488 512 513
3 489 513 514
3 490 514 515
3 491 515 516
3 492 516 517
3 493 517 518
3 494 518 519
3 495 519 520
3 496 520 521
3 497 521 522
3 498 522 523
3 499 523 524
2 500 525
3 501 525 526
3 502 526 527
3 503 527 528
3 504 528 529
3 505 529 530
3 506 530 531
3 507 531 532
3 508 532 533
3 509 533 534
3 510 534 535
3 511 535 536
3 512 536 537
3 513 537 538
3 514 538 539
3 515 539 540
3 516 540 541
3 517 541 542
3 518 542 543
3 519 543 544
3 520 544 545
3 521 545 546
3 522 546 547
3 523 547 548
3 524 548 549
2 525 550
3 526 550 551
3 527 551 552
3 528 552 553
3 529 553 554
3 530 554 555
3 531 555 556
3 532 556 557
3 533 557 558
3 534 558 559
3 535 559 560
3 536 560 561
3 537 561 562
3 538 562 563
3 539 563 564
3 540 564 565
3 541 565 566
3 542 566 567
3 543 567 568
3 544 568 569
3 545 569 570
3 546 570 571
3 547 571 572
3 548 572 573
3 549 573 574
2 550 575
3 551 575 576
3 552 576 577
3 553 577 578
3 554 578 579
3 555 579 580
3 556 580 581
3 557 581 582
3 558 582 583
3 559 583 584
3 560 584 585
3 561 585 586
3 562 586 587
3 563 587 588
3 564 588 589
3 565 589 590
3 566 590 591
3 567 591 592
3 568 592 593
3 569 593 594
3 570 594 595
3 571 595 596
3 572 596 597
3 573 597 598
3 574 598 599
2 575 600
3 576 600 601
3 577 601 602
3 578 602 603
3 579 603 604
3 580 604 605
3 581 605 606
3 582 606 607
3 583 607 608
3 584 608 609
3 585 609 610
3 586 610 611
3 587 611 612
3 588 612 613
3 589 613 614
3 590 614 615
3 591 615 616
3 592 616 617
3 593 617 618
3 594 618 619
3 595 619 620
3 596 620 621
3 597 621 622
3 598 622 623
3 599 623 624

2
0.77572 0.22428
4
0.0 1.0 1.0 0.0
4
0.574651 0.425349 0.479141 0.520859
4
0.0423858 0.957614 0.410682 0.589318
4
0.79584 0.20416 0.695766 0.304234
4
0.540803 0.459197 0.682199 0.317801
4
0.0 1.0 1.0 0.0
4
1.0 0.0 0.0 1.0
4
1.0 0.0 0.0 1.0
4
0.0 1.0 1.0 0.0
4
1.0 0.0 0.0 1.0
4
0.37574 0.62426 0.047428 0.952572
4
1.0 0.0 0.0 1.0
4
0.516701 0.483299 0.419126 0.580874
4
0.0 1.0 1.0 0.0
4
0.638814 0.361186 0.406521 0.593479
4
1.0 0.0 0.0 1.0
4
1.0 0.0 0.0 1.0
4
1.0 0.0 0.0 1.0
4
0.0 1.0 1.0 0.0
4
1.0 0.0 0.0 1.0
4
0.0 1.0 1.0 0.0
4
1.0 0.0 0.0 1.0
4
0.0 1.0 1.0 0.0
4
0.0 1.0 1.0 0.0
4
0.474998 0.525002 0.00435602 0.995644
8
0.0 1.0 0.0 1.0 1.0 0.0 0.0 1.0
8
0.569065 0.430935 0.23077 0.76923 0.636771 0.363229 0.975587 0.0244133
8
0.0 1.0 0.0 1.0 1.0 0.0 1.0 0.0
8
0.0 1.0 0.0 1.0 0.0 1.0 1.0 0.0
8
0.0 1.0 1.0 0.0 0.0 1.0 0.0 1.0
8
0.0 1.0 0.0 1.0 0.0 1.0 1.0 0.0
8
0.0 1.0 0.0 1.0 1.0 0.0 1.0 0.0
8
0.0 1.0 1.0 0.0 1.0 0.0 1.0 0.0
8
1.0 0.0 1.0 0.0 1.0 0.0 0.0 1.0
8
0.0 1.0 0.0 1.0 0.0 1.0 1.0 0.0
8
1.0 0.0 0.0 1.0 1.0 0.0 1.0 0.0
8
0.541673 0.458327 0.540911 0.459089 0.922254 0.0777457 0.518195 0.481805
8
1.0 0.0 0.0 1.0 1.0 0.0 1.0 0.0
8
1.0 0.0 0.0 1.0 0.0 1.0 0.0 1.0
8
1.0 0.0 1.0 0.0 0.0 1.0 1.0 0.0
8
0.0198592 0.980141 0.862987 0.137013 0.965477 0.0345229 0.0879334 0.912067
8
1.0 0.0 1.0 0.0 0.0 1.0 0.0 1.0
8
1.0 0.0 1.0 0.0 0.0 1.0 1.0 0.0
8
0.0 1.0 0.0 1.0 0.0 1.0 1.0 0.0
8
0.35993 0.64007 0.563551 0.436449 0.232359 0.767641 0.966047 0.0339528
8
1.0 0.0 0.0 1.0 0.0 1.0 0.0 1.0
8
1.0 0.0 0.0 1.0 1.0 0.0 0.0 1.0
8
0.0 1.0 1.0 0.0 0.0 1.0 1.0 0.0
8
1.0 0.0 0.0 1.0 0.0 1.0 0.0 1.0
4
0.0 1.0 1.0 0.0
8
1.0 0.0 1.0 0.0 0.0 1.0 0.0 1.0
8
0.739962 0.260038 0.717854 0.282146 0.348043 0.651957 0.443749 0.556251
8
0.689814 0.310186 0.12593 0.87407 0.683577 0.316423 0.964815 0.0351847
8
0.411037 0.588963 0.205294 0.794706 0.617943 0.382057 0.733754 0.266246
8
0.0 1.0 1.0 0.0 0.0 1.0 0.0 1.0
8
0.0 1.0 0.0 1.0 1.0 0.0 1.0 0.0
8
0.0 1.0 0.0 1.0 1.0 0.0 1.0 0.0
8
1.0 0.0 1.0 0.0 1.0 0.0 0.0 1.0
8
1.0 0.0 1.0 0.0 0.0 1.0 1.0 0.0
8
0.360185 0.639815 0.773554 0.226446 0.396945 0.603055 0.0939395 0.906061
8
0.234444 0.765556 0.64767 0.35233 0.35917 0.64083 0.683896 0.316104
8
1.0 0.0 0.0 1.0 0.0 1.0 0.0 1.0
8
1.0 0.0 1.0 0.0 1.0 0.0 0.0 1.0
8
0.640181 0.359819 0.229631 0.770369 0.305006 0.694994 0.553812 0.446188
8
0.0 1.0 0.0 1.0 1.0 0.0 0.0 1.0
8
0.0 1.0 1.0 0.0 1.0 0.0 1.0 0.0
8
0.321757 0.678243 0.416156 0.583844 0.62152 0.37848 0.680927 0.319073
8
0.0 1.0 0.0 1.0 1.0 0.0 0.0 1.0
8
1.0 0.0 1.0 0.0 1.0 0.0 0.0 1.0
8
0.484737 0.515263 0.695699 0.304301 0.322504 0.677496 0.53947 0.46053
8
1.0 0.0 0.0 1.0 1.0 0.0 0.0 1.0
8
0.0 1.0 1.0 0.0 0.0 1.0 0.0 1.0
8
0.261283 0.738717 0.707032 0.292968 0.0279226 0.972077 0.388126 0.611874
8
0.806585 0.193415 0.588068 0.411932 0.358375 0.641625 0.860502 0.139498
4
0.89053 0.10947 0.989013 0.0109873
8
1.0 0.0 1.0 0.0 0.0 1.0 0.0 1.0
8
1.0 0.0 1.0 0.0 1.0 0.0 0.0 1.0
8
1.0 0.0 0.0 1.0 1.0 0.0 1.0 0.0
8
1.0 0.0 0.0 1.0 1.0 0.0 1.0 0.0
8
1.0 0.0 1.0 0.0 0.0 1.0 1.0 0.0
8
1.0 0.0 0.0 1.0 0.0 1.0 1.0 0.0
8
0.0 1.0 0.0 1.0 1.0 0.0 0.0 1.0
8
0.0 1.0 1.0 0.0 1.0 0.0 0.0 1.0
8
0.436184 0.563816 0.795086 0.204914 0.633445 0.366555 0.905781 0.0942193
8
0.0 1.0 1.0 0.0 0.0 1.0 1.0 0.0
8
1.0 0.0 0.0 1.0 0.0 1.0 0.0 1.0
8
1.0 0.0 1.0 0.0 1.0 0.0 0.0 1.0
8
1.0 0.0 0.0 1.0 0.0 1.0 0.0 1.0
8
1.0 0.0 0.0 1.0 0.0 1.0 0.0 1.0
8
0.0 1.0 1.0 0.0 0.0 1.0 1.0 0.0
8
0.780777 0.219223 0.492294 0.507706 0.198953 0.801047 0.82605 0.17395
8
0.0 1.0 1.0 0.0 0.0 1.0 0.0 1.0
8
1.0 0.0 1.0 0.0 1.0 0.0 0.0 1.0
8
1.0 0.0 0.0 1.0 0.0 1.0 1.0 0.0
8
0.954947 0.0450533 0.0448565 0.955143 0.862063 0.137937 0.907144 0.0928557
8
0.0 1.0 1.0 0.0 0.0 1.0 0.0 1.0
8
0.0 1.0 1.0 0.0 1.0 0.0 0.0 1.0
8
0.191645 0.808355 0.811142 0.188858 0.476257 0.523743 0.757907 0.242093
8
1.0 0.0 0.0 1.0 0.0 1.0 0.0 1.0
4
1.0 0.0 0.0 1.0
8
1.0 0.0 1.0 0.0 0.0 1.0 0.0 1.0
8
0.0 1.0 0.0 1.0 1.0 0.0 0.0 1.0
8
0.0 1.0 1.0 0.0 1.0 0.0 0.0 1.0
8
0.691248 0.308752 0.306154 0.693846 0.717202 0.282798 0.882893 0.117107
8
0.0 1.0 1.0 0.0 1.0 0.0 1.0 0.0
8
0.0 1.0 1.0 0.0 1.0 0.0 1.0 0.0
8
0.0 1.0 0.0 1.0 1.0 0.0 1.0 0.0
8
1.0 0.0 1.0 0.0 0.0 1.0 1.0 0.0
8
1.0 0.0 0.0 1.0 0.0 1.0 1.0 0.0
8
1.0 0.0 0.0 1.0 1.0 0.0 1.0 0.0
8
0.112323 0.887677 0.855614 0.144386 0.496149 0.503851 0.614796 0.385204
8
0.0 1.0 0.0 1.0 0.0 1.0 1.0 0.0
8
1.0 0.0 1.0 0.0 0.0 1.0 1.0 0.0
8
0.0 1.0 0.0 1.0 1.0 0.0 1.0 0.0
8
0.0 1.0 0.0 1.0 0.0 1.0 1.0 0.0
8
0.0 1.0 0.0 1.0 1.0 0.0 1.0 0.0
8
0.0 1.0 0.0 1.0 0.0 1.0 1.0 0.0
8
0.0 1.0 1.0 0.0 1.0 0.0 0.0 1.0
8
1.0 0.0 0.0 1.0 1.0 0.0 0.0 1.0
8
0.0 1.0 0.0 1.0 1.0 0.0 1.0 0.0
8
0.106774 0.893226 0.925238 0.0747624 0.920364 0.0796357 0.369188 0.630812
8
1.0 0.0 0.0 1.0 1.0 0.0 1.0 0.0
8
0.0 1.0 1.0 0.0 0.0 1.0 0.0 1.0
8
1.0 0.0 0.0 1.0 1.0 0.0 0.0 1.0
4
0.614003 0.385997 0.431721 0.568279
8
1.0 0.0 0.0 1.0 0.0 1.0 1.0 0.0
8
1.0 0.0 0.0 1.0 0.0 1.0 1.0 0.0
8
0.0 1.0 0.0 1.0 1.0 0.0 1.0 0.0
8
0.0 1.0 0.0 1.0 1.0 0.0 0.0 1.0
8
0.0 1.0 0.0 1.0 1.0 0.0 1.0 0.0
8
0.364948 0.635052 0.80611 0.19389 0.372116 0.627884 0.796669 0.203331
8
0.124756 0.875244 0.658161 0.341839 0.211783 0.788217 0.0195779 0.980422
8
0.0 1.0 0.0 1.0 0.0 1.0 1.0 0.0
8
0.0 1.0 0.0 1.0 0.0 1.0 1.0 0.0
8
0.0 1.0 0.0 1.0 0.0 1.0 1.0 0.0
8
0.196229 0.803771 0.684437 0.315563 0.574099 0.425901 0.442619 0.557381
8
0.0 1.0 1.0 0.0 0.0 1.0 0.0 1.0
8
1.0 0.0 0.0 1.0 0.0 1.0 0.0 1.0
8
0.472416 0.527584 0.70846 0.29154 0.263812 0.736188 0.050441 0.949559
8
0.0 1.0 0.0 1.0 0.0 1.0 1.0 0.0
8
1.0 0.0 1.0 0.0 1.0 0.0 0.0 1.0
8
0.287533 0.712467 0.300562 0.699438 0.522973 0.477027 0.730153 0.269847
8
0.0 1.0 0.0 1.0 0.0 1.0 1.0 0.0
8
0.388599 0.611401 0.404354 0.595646 0.604544 0.395456 0.237261 0.762739
8
0.313004 0.686996 0.501073 0.498927 0.927211 0.0727893 0.0578274 0.942173
8
1.0 0.0 0.0 1.0 0.0 1.0 0.0 1.0
8
1.0 0.0 0.0 1.0 1.0 0.0 1.0 0.0
8
1.0 0.0 0.0 1.0 1.0 0.0 0.0 1.0
8
0.0 1.0 1.0 0.0 1.0 0.0 0.0 1.0
4
1.0 0.0 0.0 1.0
8
1.0 0.0 1.0 0.0 0.0 1.0 0.0 1.0
8
1.0 0.0 1.0 0.0 0.0 1.0 1.0 0.0
8
1.0 0.0 0.0 1.0 1.0 0.0 0.0 1.0
8
0.0 1.0 1.0 0.0 0.0 1.0 1.0 0.0
8
1.0 0.0 1.0 0.0 0.0 1.0 1.0 0.0
8
1.0 0.0 0.0 1.0 0.0 1.0 0.0 1.0
8
1.0 0.0 1.0 0.0 0.0 1.0 1.0 0.0
8
1.0 0.0 0.0 1.0 1.0 0.0 0.0 1.0
8
1.0 0.0 1.0 0.0 1.0 0.0 0.0 1.0
8
1.0 0.0 0.0 1.0 0.0 1.0 1.0 0.0
8
0.883161 0.116839 0.360572 0.639428 0.110463 0.889537 0.988882 0.0111184
8
0.210256 0.789744 0.270058 0.729942 0.355478 0.644522 0.41521 0.58479
8
0.0 1.0 1.0 0.0 0.0 1.0 0.0 1.0
8
1.0 0.0 1.0 0.0 1.0 0.0 0.0 1.0
8
1.0 0.0 1.0 0.0 1.0 0.0 0.0 1.0
8
1.0 0.0 0.0 1.0 1.0 0.0 1.0 0.0
8
0.0 1.0 1.0 0.0 0.0 1.0 1.0 0.0
8
0.540177 0.459823 0.884511 0.115489 0.237004 0.762996 0.895655 0.104345
8
1.0 0.0 1.0 0.0 0.0 1.0 0.0 1.0
8
1.0 0.0 1.0 0.0 1.0 0.0 0.0 1.0
8
1.0 0.0 1.0 0.0 1.0 0.0 0.0 1.0
8
0.0 1.0 1.0 0.0 0.0 1.0 0.0 1.0
8
0.925933 0.0740673 0.889794 0.110206 0.916183 0.0838168 0.709964 0.290036
8
0.0 1.0 1.0 0.0 1.0 0.0 0.0 1.0
4
1.0 0.0 0.0 1.0
8
0.0 1.0 1.0 0.0 0.0 1.0 1.0 0.0
8
0.732357 0.267643 0.531682 0.468318 0.14204 0.85796 0.0611464 0.938854
8
0.0 1.0 1.0 0.0 0.0 1.0 0.0 1.0
8
1.0 0.0 0.0 1.0 0.0 1.0 0.0 1.0
8
0.421962 0.578038 0.4254 0.5746 0.489664 0.510336 0.986011 0.0139887
8
0.0 1.0 1.0 0.0 1.0 0.0 1.0 0.0
8
1.0 0.0 1.0 0.0 0.0 1.0 1.0 0.0
8
0.0 1.0 0.0 1.0 1.0 0.0 1.0 0.0
8
0.0 1.0 1.0 0.0 0.0 1.0 0.0 1.0
8
0.0 1.0 0.0 1.0 1.0 0.0 0.0 1.0
8
0.9879 0.0121 0.747831 0.252169 0.406869 0.593131 0.477564 0.522436
8
0.0 1.0 0.0 1.0 0.0 1.0 1.0 0.0
8
1.0 0.0 0.0 1.0 1.0 0.0 1.0 0.0
8
1.0 0.0 1.0 0.0 0.0 1.0 0.0 1.0
8
0.0 1.0 1.0 0.0 1.0 0.0 1.0 0.0
8
1.0 0.0 1.0 0.0 1.0 0.0 0.0 1.0
8
0.803624 0.196376 0.57597 0.42403 0.192145 0.807855 0.281188 0.718812
8
1.0 0.0 0.0 1.0 0.0 1.0 1.0 0.0
8
1.0 0.0 1.0 0.0 0.0 1.0 0.0 1.0
8
1.0 0.0 0.0 1.0 1.0 0.0 1.0 0.0
8
0.0 1.0 0.0 1.0 0.0 1.0 1.0 0.0
8
0.561737 0.438263 0.957646 0.0423545 0.652935 0.347065 0.377461 0.622539
8
0.438211 0.561789 0.181085 0.818915 0.361754 0.638246 0.630356 0.369644
8
1.0 0.0 0.0 1.0 0.0 1.0 0.0 1.0
4
0.0 1.0 1.0 0.0
8
0.264436 0.735564 0.741073 0.258927 0.520591 0.479409 0.886637 0.113363
8
1.0 0.0 0.0 1.0 0.0 1.0 0.0 1.0
8
0.0 1.0 1.0 0.0 1.0 0.0 1.0 0.0
8
1.0 0.0 1.0 0.0 0.0 1.0 0.0 1.0
8
1.0 0.0 0.0 1.0 1.0 0.0 1.0 0.0
8
1.0 0.0 0.0 1.0 0.0 1.0 0.0 1.0
8
1.0 0.0 0.0 1.0 1.0 0.0 1.0 0.0
8
1.0 0.0 0.0 1.0 1.0 0.0 1.0 0.0
8
0.0 1.0 0.0 1.0 0.0 1.0 1.0 0.0
8
0.0 1.0 0.0 1.0 0.0 1.0 1.0 0.0
8
1.0 0.0 0.0 1.0 0.0 1.0 1.0 0.0
8
0.0 1.0 1.0 0.0 0.0 1.0 1.0 0.0
8
0.0 1.0 1.0 0.0 1.0 0.0 1.0 0.0
8
1.0 0.0 0.0 1.0 0.0 1.0 0.0 1.0
8
0.0 1.0 1.0 0.0 0.0 1.0 0.0 1.0
8
1.0 0.0 0.0 1.0 0.0 1.0 0.0 1.0
8
0.758372 0.241628 0.475878 0.524122 0.850168 0.149832 0.487366 0.512634
8
0.443939 0.556061 0.0902442 0.909756 0.79936 0.20064 0.658147 0.341853
8
0.301419 0.698581 0.0133821 0.986618 0.5976 0.4024 0.848486 0.151514
8
1.0 0.0 0.0 1.0 1.0 0.0 1.0 0.0
8
0.0 1.0 1.0 0.0 1.0 0.0 1.0 0.0
8
0.105251 0.894749 0.843658 0.156342 0.191295 0.808705 0.456274 0.543726
8
0.0 1.0 0.0 1.0 1.0 0.0 1.0 0.0
8
1.0 0.0 1.0 0.0 0.0 1.0 1.0 0.0
4
1.0 0.0 0.0 1.0
8
1.0 0.0 0.0 1.0 1.0 0.0 0.0 1.0
8
0.923302 0.0766978 0.858714 0.141286 0.97979 0.0202102 0.324775 0.675225
8
0.0 1.0 0.0 1.0 1.0 0.0 0.0 1.0
8
1.0 0.0 1.0 0.0 1.0 0.0 0.0 1.0
8
1.0 0.0 1.0 0.0 0.0 1.0 0.0 1.0
8
0.0 1.0 0.0 1.0 1.0 0.0 1.0 0.0
8
0.0 1.0 0.0 1.0 0.0 1.0 1.0 0.0
8
0.0 1.0 0.0 1.0 0.0 1.0 1.0 0.0
8
0.72704 0.27296 0.123689 0.876311 0.921057 0.0789426 0.605738 0.394262
8
1.0 0.0 0.0 1.0 1.0 0.0 0.0 1.0
8
0.813707 0.186293 0.0641536 0.935846 0.846575 0.153425 0.510954 0.489046
8
1.0 0.0 1.0 0.0 0.0 1.0 0.0 1.0
8
1.0 0.0 0.0 1.0 0.0 1.0 1.0 0.0
8
0.255299 0.744701 0.500377 0.499623 0.491865 0.508135 0.511028 0.488972
8
1.0 0.0 1.0 0.0 0.0 1.0 1.0 0.0
8
0.0 1.0 0.0 1.0 1.0 0.0 1.0 0.0
8
0.116182 0.883818 0.000703104 0.999297 0.810123 0.189877 0.627136 0.372864
8
0.0 1.0 0.0 1.0 1.0 0.0 0.0 1.0
8
0.0 1.0 0.0 1.0 1.0 0.0 0.0 1.0
8
0.75151 0.24849 0.0601284 0.939872 0.305946 0.694054 0.133862 0.866138
8
1.0 0.0 0.0 1.0 1.0 0.0 1.0 0.0
8
1.0 0.0 0.0 1.0 1.0 0.0 1.0 0.0
8
0.116141 0.883859 0.333388 0.666612 0.434682 0.565318 0.372246 0.627754
8
1.0 0.0 0.0 1.0 0.0 1.0 1.0 0.0
4
1.0 0.0 0.0 1.0
8
0.0 1.0 1.0 0.0 0.0 1.0 0.0 1.0
8
0.119113 0.880887 0.367163 0.632837 0.333451 0.666549 0.663127 0.336873
8
1.0 0.0 1.0 0.0 0.0 1.0 1.0 0.0
8
0.0 1.0 0.0 1.0 0.0 1.0 1.0 0.0
8
0.0 1.0 0.0 1.0 1.0 0.0 1.0 0.0
8
1.0 0.0 1.0 0.0 1.0 0.0 0.0 1.0
8
1.0 0.0 0.0 1.0 0.0 1.0 1.0 0.0
8
0.0 1.0 1.0 0.0 1.0 0.0 0.0 1.0
8
0.0 1.0 1.0 0.0 0.0 1.0 0.0 1.0
8
0.880733 0.119267 0.315733 0.684267 0.233536 0.766464 0.0146632 0.985337
8
0.0 1.0 1.0 0.0 0.0 1.0 1.0 0.0
8
0.0 1.0 1.0 0.0 1.0 0.0 1.0 0.0
8
0.44663 0.55337 0.89616 0.10384 0.211376 0.788624 0.562733 0.437267
8
0.0 1.0 0.0 1.0 0.0 1.0 1.0 0.0
8
0.108162 0.891838 0.327472 0.672528 0.293838 0.706162 0.378231 0.621769
8
0.0 1.0 1.0 0.0 0.0 1.0 0.0 1.0
8
1.0 0.0 0.0 1.0 1.0 0.0 1.0 0.0
8
0.785227 0.214773 0.289332 0.710668 0.084707 0.915293 0.91024 0.0897597
8
1.0 0.0 0.0 1.0 0.0 1.0 1.0 0.0
8
0.79098 0.20902 0.952135 0.0478646 0.453053 0.546947 0.680019 0.319981
8
0.0 1.0 1.0 0.0 0.0 1.0 0.0 1.0
8
0.0 1.0 0.0 1.0 1.0 0.0 0.0 1.0
8
1.0 0.0 0.0 1.0 1.0 0.0 1.0 0.0
8
0.23984 0.76016 0.196034 0.803966 0.0167405 0.983259 0.15008 0.84992
4
0.0878898 0.91211 0.506951 0.493049
8
1.0 0.0 1.0 0.0 0.0 1.0 0.0 1.0
8
0.686746 0.313254 0.769694 0.230306 0.170279 0.829721 0.474928 0.525072
8
0.0 1.0 0.0 1.0 0.0 1.0 1.0 0.0
8
0.0 1.0 1.0 0.0 0.0 1.0 1.0 0.0
8
1.0 0.0 0.0 1.0 0.0 1.0 1.0 0.0
8
0.0 1.0 1.0 0.0 0.0 1.0 0.0 1.0
8
1.0 0.0 0.0 1.0 0.0 1.0 0.0 1.0
8
0.0 1.0 1.0 0.0 1.0 0.0 0.0 1.0
8
1.0 0.0 1.0 0.0 1.0 0.0 0.0 1.0
8
1.0 0.0 0.0 1.0 0.0 1.0 1.0 0.0
8
1.0 0.0 1.0 0.0 0.0 1.0 1.0 0.0
8
0.0 1.0 1.0 0.0 1.0 0.0 1.0 0.0
8
1.0 0.0 0.0 1.0 0.0 1.0 1.0 0.0
8
1.0 0.0 1.0 0.0 0.0 1.0 0.0 1.0
8
1.0 0.0 1.0 0.0 0.0 1.0 1.0 0.0
8
0.589662 0.410338 0.334731 0.665269 0.0615838 0.938416 0.437308 0.562692
8
0.361684 0.638316 0.552948 0.447052 0.0777784 0.922222 0.121959 0.878041
8
0.0 1.0 0.0 1.0 0.0 1.0 1.0 0.0
8
0.173212 0.826788 0.599345 0.400655 0.0117198 0.98828 0.856616 0.143384
8
0.466581 0.533419 0.671077 0.328923 0.927661 0.0723386 0.515087 0.484913
8
0.0 1.0 1.0 0.0 1.0 0.0 1.0 0.0
8
1.0 0.0 1.0 0.0 1.0 0.0 0.0 1.0
8
0.407183 0.592817 0.164387 0.835613 0.304782 0.695218 0.484961 0.515039
8
1.0 0.0 1.0 0.0 1.0 0.0 0.0 1.0
4
1.0 0.0 0.0 1.0
8
1.0 0.0 1.0 0.0 0.0 1.0 1.0 0.0
8
1.0 0.0 0.0 1.0 0.0 1.0 0.0 1.0
8
1.0 0.0 1.0 0.0 0.0 1.0 0.0 1.0
8
1.0 0.0 0.0 1.0 1.0 0.0 0.0 1.0
8
1.0 0.0 1.0 0.0 1.0 0.0 0.0 1.0
8
1.0 0.0 0.0 1.0 1.0 0.0 0.0 1.0
8
1.0 0.0 0.0 1.0 0.0 1.0 0.0 1.0
8
0.0 1.0 0.0 1.0 1.0 0.0 0.0 1.0
8
1.0 0.0 0.0 1.0 0.0 1.0 0.0 1.0
8
0.795405 0.204595 0.509166 0.490834 0.339296 0.660704 0.426864 0.573136
8
0.0 1.0 0.0 1.0 0.0 1.0 1.0 0.0
8
1.0 0.0 1.0 0.0 0.0 1.0 1.0 0.0
8
1.0 0.0 0.0 1.0 0.0 1.0 1.0 0.0
8
1.0 0.0 0.0 1.0 1.0 0.0 1.0 0.0
8
0.0 1.0 1.0 0.0 0.0 1.0 0.0 1.0
8
0.0 1.0 1.0 0.0 0.0 1.0 1.0 0.0
8
1.0 0.0 1.0 0.0 0.0 1.0 1.0 0.0
8
0.528875 0.471125 0.886789 0.113211 0.315324 0.684676 0.0258782 0.974122
8
0.906663 0.0933371 0.749359 0.250641 0.604157 0.395843 0.80654 0.19346
8
0.791775 0.208225 0.04674 0.95326 0.340276 0.659724 0.720109 0.279891
8
1.0 0.0 0.0 1.0 1.0 0.0 1.0 0.0
8
0.0 1.0 0.0 1.0 1.0 0.0 0.0 1.0
8
1.0 0.0 0.0 1.0 0.0 1.0 0.0 1.0
8
0.0 1.0 1.0 0.0 0.0 1.0 1.0 0.0
4
0.0 1.0 1.0 0.0
8
0.883658 0.116342 0.541706 0.458294 0.607877 0.392123 0.820334 0.179666
8
0.0 1.0 1.0 0.0 0.0 1.0 0.0 1.0
8
0.365997 0.634003 0.821561 0.178439 0.317161 0.682839 0.599036 0.400964
8
1.0 0.0 0.0 1.0 1.0 0.0 0.0 1.0
8
1.0 0.0 0.0 1.0 1.0 0.0 1.0 0.0
8
1.0 0.0 1.0 0.0 1.0 0.0 0.0 1.0
8
1.0 0.0 0.0 1.0 1.0 0.0 1.0 0.0
8
1.0 0.0 0.0 1.0 1.0 0.0 1.0 0.0
8
1.0 0.0 0.0 1.0 0.0 1.0 0.0 1.0
8
1.0 0.0 0.0 1.0 0.0 1.0 0.0 1.0
8
0.0 1.0 0.0 1.0 1.0 0.0 1.0 0.0
8
0.0 1.0 1.0 0.0 0.0 1.0 0.0 1.0
8
0.665938 0.334062 0.13528 0.86472 0.0781363 0.921864 0.832289 0.167711
8
0.0 1.0 0.0 1.0 1.0 0.0 1.0 0.0
8
0.0 1.0 1.0 0.0 0.0 1.0 0.0 1.0
8
0.664068 0.335932 0.708998 0.291002 0.972078 0.0279222 0.40201 0.59799
8
0.0 1.0 0.0 1.0 1.0 0.0 1.0 0.0
8
1.0 0.0 1.0 0.0 0.0 1.0 1.0 0.0
8
0.571681 0.428319 0.391782 0.608218 0.960054 0.0399464 0.649817 0.350183
8
0.0 1.0 1.0 0.0 1.0 0.0 1.0 0.0
8
1.0 0.0 1.0 0.0 1.0 0.0 0.0 1.0
8
1.0 0.0 0.0 1.0 0.0 1.0 1.0 0.0
8
0.0 1.0 0.0 1.0 0.0 1.0 1.0 0.0
8
0.721451 0.278549 0.232248 0.767752 0.277499 0.722501 0.523878 0.476122
4
0.102273 0.897727 0.0955589 0.904441
8
0.0 1.0 1.0 0.0 0.0 1.0 0.0 1.0
8
1.0 0.0 1.0 0.0 0.0 1.0 1.0 0.0
8
1.0 0.0 1.0 0.0 0.0 1.0 0.0 1.0
8
0.174086 0.825914 0.43636 0.56364 0.408984 0.591016 0.452047 0.547953
8
0.396257 0.603743 0.278371 0.721629 0.752086 0.247914 0.117709 0.882291
8
0.0 1.0 1.0 0.0 1.0 0.0 1.0 0.0
8
1.0 0.0 1.0 0.0 0.0 1.0 1.0 0.0
8
0.0 1.0 1.0 0.0 0.0 1.0 0.0 1.0
8
0.673774 0.326226 0.349072 0.650928 0.929474 0.0705258 0.588761 0.411239
8
0.916781 0.0832189 0.762848 0.237152 0.198114 0.801886 0.325765 0.674235
8
0.0 1.0 0.0 1.0 1.0 0.0 1.0 0.0
8
0.00388453 0.996115 0.91342 0.0865802 0.481318 0.518682 0.472595 0.527405
8
1.0 0.0 1.0 0.0 0.0 1.0 1.0 0.0
8
0.0 1.0 0.0 1.0 1.0 0.0 0.0 1.0
8
1.0 0.0 1.0 0.0 0.0 1.0 0.0 1.0
8
1.0 0.0 0.0 1.0 1.0 0.0 0.0 1.0
8
1.0 0.0 1.0 0.0 0.0 1.0 0.0 1.0
8
0.729105 0.270895 0.740664 0.259336 0.846268 0.153732 0.210423 0.789577
8
1.0 0.0 0.0 1.0 0.0 1.0 1.0 0.0
8
0.0 1.0 1.0 0.0 0.0 1.0 0.0 1.0
8
0.358533 0.641467 0.216973 0.783027 0.505601 0.494399 0.315929 0.684071
8
1.0 0.0 0.0 1.0 0.0 1.0 0.0 1.0
8
1.0 0.0 1.0 0.0 0.0 1.0 0.0 1.0
8
0.769198 0.230802 0.520947 0.479053 0.780474 0.219526 0.979622 0.0203783
4
1.0 0.0 0.0 1.0
8
0.0 1.0 0.0 1.0 1.0 0.0 0.0 1.0
8
0.0 1.0 0.0 1.0 0.0 1.0 1.0 0.0
8
0.00717723 0.992823 0.733949 0.266051 0.998133 0.0018669 0.990544 0.00945628
8
1.0 0.0 0.0 1.0 1.0 0.0 1.0 0.0
8
1.0 0.0 1.0 0.0 0.0 1.0 0.0 1.0
8
1.0 0.0 0.0 1.0 0.0 1.0 0.0 1.0
8
0.0 1.0 1.0 0.0 0.0 1.0 0.0 1.0
8
0.226927 0.773073 0.81278 0.18722 0.792129 0.207871 0.189504 0.810496
8
0.799306 0.200694 0.923453 0.0765474 0.773967 0.226033 0.78985 0.21015
8
0.0 1.0 0.0 1.0 1.0 0.0 1.0 0.0
8
1.0 0.0 0.0 1.0 1.0 0.0 1.0 0.0
8
1.0 0.0 0.0 1.0 1.0 0.0 1.0 0.0
8
1.0 0.0 1.0 0.0 1.0 0.0 0.0 1.0
8
1.0 0.0 0.0 1.0 0.0 1.0 0.0 1.0
8
0.963217 0.0367829 0.5321 0.4679 0.818762 0.181238 0.737184 0.262816
8
0.0 1.0 1.0 0.0 0.0 1.0 0.0 1.0
8
1.0 0.0 1.0 0.0 1.0 0.0 0.0 1.0
8
0.421746 0.578254 0.858889 0.141111 0.496421 0.503579 0.753627 0.246373
8
0.0 1.0 1.0 0.0 0.0 1.0 0.0 1.0
8
1.0 0.0 1.0 0.0 1.0 0.0 0.0 1.0
8
1.0 0.0 0.0 1.0 0.0 1.0 0.0 1.0
8
0.0 1.0 0.0 1.0 0.0 1.0 1.0 0.0
8
0.394797 0.605203 0.524718 0.475282 0.183101 0.816899 0.369576 0.630424
8
1.0 0.0 0.0 1.0 1.0 0.0 1.0 0.0
4
0.155546 0.844454 0.321047 0.678953
8
0.0 1.0 0.0 1.0 1.0 0.0 1.0 0.0
8
1.0 0.0 0.0 1.0 1.0 0.0 1.0 0.0
8
0.212443 0.787557 0.999529 0.000470941 0.582108 0.417892 0.601466 0.398534
8
0.0 1.0 0.0 1.0 1.0 0.0 0.0 1.0
8
1.0 0.0 1.0 0.0 0.0 1.0 0.0 1.0
8
0.0 1.0 1.0 0.0 0.0 1.0 1.0 0.0
8
0.330612 0.669388 0.481708 0.518292 0.918594 0.0814058 0.560424 0.439576
8
0.0 1.0 1.0 0.0 1.0 0.0 0.0 1.0
8
1.0 0.0 1.0 0.0 0.0 1.0 0.0 1.0
8
0.0 1.0 0.0 1.0 1.0 0.0 1.0 0.0
8
0.0 1.0 1.0 0.0 1.0 0.0 1.0 0.0
8
0.0 1.0 1.0 0.0 0.0 1.0 0.0 1.0
8
0.0 1.0 1.0 0.0 1.0 0.0 1.0 0.0
8
1.0 0.0 1.0 0.0 1.0 0.0 0.0 1.0
8
0.0 1.0 0.0 1.0 1.0 0.0 0.0 1.0
8
0.952786 0.047214 0.102826 0.897174 0.180252 0.819748 0.380257 0.619743
8
0.0 1.0 0.0 1.0 0.0 1.0 1.0 0.0
8
1.0 0.0 0.0 1.0 0.0 1.0 0.0 1.0
8
0.0 1.0 1.0 0.0 1.0 0.0 0.0 1.0
8
0.0 1.0 1.0 0.0 1.0 0.0 0.0 1.0
8
1.0 0.0 1.0 0.0 1.0 0.0 0.0 1.0
8
0.0 1.0 1.0 0.0 1.0 0.0 1.0 0.0
8
0.0 1.0 1.0 0.0 1.0 0.0 1.0 0.0
8
0.0 1.0 0.0 1.0 1.0 0.0 0.0 1.0
4
0.155004 0.844996 0.0856899 0.91431
8
0.560738 0.439262 0.45877 0.54123 0.771209 0.228791 0.377816 0.622184
8
0.844958 0.155042 0.0762266 0.923773 0.969177 0.0308225 0.87968 0.12032
8
0.0 1.0 0.0 1.0 0.0 1.0 1.0 0.0
8
0.0 1.0 0.0 1.0 1.0 0.0 0.0 1.0
8
1.0 0.0 0.0 1.0 0.0 1.0 1.0 0.0
8
1.0 0.0 1.0 0.0 0.0 1.0 1.0 0.0
8
1.0 0.0 0.0 1.0 0.0 1.0 0.0 1.0
8
1.0 0.0 1.0 0.0 0.0 1.0 0.0 1.0
8
1.0 0.0 0.0 1.0 1.0 0.0 1.0 0.0
8
1.0 0.0 0.0 1.0 1.0 0.0 0.0 1.0
8
0.955848 0.0441521 0.462326 0.537674 0.837212 0.162788 0.244874 0.755126
8
0.129153 0.870847 0.436971 0.563029 0.407436 0.592564 0.259117 0.740883
8
0.986205 0.0137947 0.234833 0.765167 0.691911 0.308089 0.023745 0.976255
8
0.977566 0.0224342 0.916425 0.0835753 0.57364 0.42636 0.339448 0.660552
8
0.0452032 0.954797 0.428753 0.571247 0.82618 0.17382 0.611421 0.388579
8
1.0 0.0 0.0 1.0 1.0 0.0 1.0 0.0
8
1.0 0.0 0.0 1.0 0.0 1.0 1.0 0.0
8
0.0 1.0 0.0 1.0 0.0 1.0 1.0 0.0
8
0.0 1.0 1.0 0.0 1.0 0.0 1.0 0.0
8
0.0 1.0 0.0 1.0 1.0 0.0 1.0 0.0
8
1.0 0.0 1.0 0.0 1.0 0.0 0.0 1.0
8
0.0 1.0 0.0 1.0 0.0 1.0 1.0 0.0
8
0.760436 0.239564 0.481498 0.518502 0.328669 0.671331 0.818179 0.181821
8
0.78303 0.21697 0.00507585 0.994924 0.602387 0.397613 0.644826 0.355174
4
0.0 1.0 1.0 0.0
8
1.0 0.0 0.0 1.0 1.0 0.0 1.0 0.0
8
1.0 0.0 0.0 1.0 0.0 1.0 1.0 0.0
8
1.0 0.0 0.0 1.0 1.0 0.0 0.0 1.0
8
1.0 0.0 1.0 0.0 0.0 1.0 1.0 0.0
8
0.22092 0.77908 0.033416 0.966584 0.621515 0.378485 0.0443771 0.955623
8
0.62659 0.37341 0.646764 0.353236 0.461272 0.538728 0.0776794 0.922321
8
0.9541 0.0458996 0.209614 0.790386 0.232453 0.767547 0.318675 0.681325
8
1.0 0.0 1.0 0.0 1.0 0.0 0.0 1.0
8
1.0 0.0 1.0 0.0 0.0 1.0 1.0 0.0
8
0.0 1.0 1.0 0.0 1.0 0.0 1.0 0.0
8
1.0 0.0 0.0 1.0 0.0 1.0 0.0 1.0
8
0.308947 0.691053 0.484215 0.515785 0.0103306 0.989669 0.1211 0.8789
8
0.0 1.0 0.0 1.0 0.0 1.0 1.0 0.0
8
0.0 1.0 0.0 1.0 1.0 0.0 1.0 0.0
8
0.0 1.0 0.0 1.0 1.0 0.0 0.0 1.0
8
1.0 0.0 0.0 1.0 0.0 1.0 1.0 0.0
8
1.0 0.0 0.0 1.0 0.0 1.0 1.0 0.0
8
0.0 1.0 1.0 0.0 1.0 0.0 0.0 1.0
8
1.0 0.0 1.0 0.0 1.0 0.0 0.0 1.0
8
0.0782121 0.921788 0.937231 0.0627689 0.040219 0.959781 0.426932 0.573068
8
1.0 0.0 0.0 1.0 1.0 0.0 1.0 0.0
8
0.0 1.0 0.0 1.0 0.0 1.0 1.0 0.0
8
1.0 0.0 0.0 1.0 0.0 1.0 0.0 1.0
8
0.0 1.0 0.0 1.0 0.0 1.0 1.0 0.0
4
1.0 0.0 0.0 1.0
8
0.0 1.0 1.0 0.0 0.0 1.0 0.0 1.0
8
0.734787 0.265213 0.208028 0.791972 0.988209 0.0117909 0.812542 0.187458
8
0.0 1.0 1.0 0.0 0.0 1.0 0.0 1.0
8
1.0 0.0 0.0 1.0 1.0 0.0 1.0 0.0
8
1.0 0.0 0.0 1.0 0.0 1.0 1.0 0.0
8
0.331632 0.668368 0.389471 0.610529 0.694067 0.305933 0.0718441 0.928156
8
0.135358 0.864642 0.593246 0.406754 0.211872 0.788128 0.51388 0.48612
8
0.0 1.0 0.0 1.0 1.0 0.0 0.0 1.0
8
1.0 0.0 0.0 1.0 1.0 0.0 1.0 0.0
8
1.0 0.0 0.0 1.0 0.0 1.0 0.0 1.0
8
0.0 1.0 1.0 0.0 0.0 1.0 0.0 1.0
8
1.0 0.0 1.0 0.0 1.0 0.0 0.0 1.0
8
0.778099 0.221901 0.382046 0.617954 0.588428 0.411572 0.98997 0.0100296
8
0.743295 0.256705 0.0790811 0.920919 0.144592 0.855408 0.10619 0.89381
8
1.0 0.0 0.0 1.0 0.0 1.0 0.0 1.0
8
1.0 0.0 1.0 0.0 0.0 1.0 1.0 0.0
8
0.0 1.0 0.0 1.0 1.0 0.0 0.0 1.0
8
0.0 1.0 0.0 1.0 1.0 0.0 1.0 0.0
8
0.0 1.0 0.0 1.0 0.0 1.0 1.0 0.0
8
0.0 1.0 1.0 0.0 1.0 0.0 1.0 0.0
8
1.0 0.0 0.0 1.0 1.0 0.0 1.0 0.0
8
0.528678 0.471322 0.813926 0.186074 0.132046 0.867954 0.32717 0.67283
8
1.0 0.0 1.0 0.0 0.0 1.0 0.0 1.0
8
0.0 1.0 0.0 1.0 1.0 0.0 0.0 1.0
4
0.0 1.0 1.0 0.0
8
0.549271 0.450729 0.26739 0.73261 0.864427 0.135573 0.0599618 0.940038
8
1.0 0.0 0.0 1.0 1.0 0.0 0.0 1.0
8
1.0 0.0 0.0 1.0 1.0 0.0 0.0 1.0
8
1.0 0.0 0.0 1.0 0.0 1.0 1.0 0.0
8
1.0 0.0 1.0 0.0 0.0 1.0 0.0 1.0
8
1.0 0.0 0.0 1.0 0.0 1.0 0.0 1.0
8
0.172969 0.827031 0.441929 0.558071 0.78994 0.21006 0.23293 0.76707
8
0.0 1.0 0.0 1.0 1.0 0.0 0.0 1.0
8
0.0 1.0 1.0 0.0 1.0 0.0 1.0 0.0
8
1.0 0.0 1.0 0.0 0.0 1.0 1.0 0.0
8
1.0 0.0 0.0 1.0 1.0 0.0 1.0 0.0
8
1.0 0.0 0.0 1.0 1.0 0.0 0.0 1.0
8
1.0 0.0 0.0 1.0 0.0 1.0 1.0 0.0
8
1.0 0.0 1.0 0.0 1.0 0.0 0.0 1.0
8
0.710485 0.289515 0.700137 0.299863 0.833862 0.166138 0.79764 0.20236
8
0.0 1.0 0.0 1.0 1.0 0.0 1.0 0.0
8
0.27813 0.72187 0.800844 0.199156 0.170838 0.829162 0.521883 0.478117
8
1.0 0.0 1.0 0.0 0.0 1.0 1.0 0.0
8
1.0 0.0 1.0 0.0 0.0 1.0 0.0 1.0
8
0.859115 0.140885 0.245122 0.754878 0.650656 0.349344 0.2937 0.7063
8
0.0 1.0 0.0 1.0 1.0 0.0 1.0 0.0
8
0.634101 0.365899 0.481736 0.518264 0.664953 0.335047 0.263627 0.736373
8
0.535323 0.464677 0.541757 0.458243 0.672316 0.327684 0.706161 0.293839
8
0.0 1.0 0.0 1.0 1.0 0.0 0.0 1.0
4
1.0 0.0 0.0 1.0
8
0.324474 0.675526 0.585825 0.414175 0.826966 0.173034 0.170604 0.829396
8
1.0 0.0 1.0 0.0 0.0 1.0 0.0 1.0
8
0.0 1.0 0.0 1.0 1.0 0.0 1.0 0.0
8
1.0 0.0 1.0 0.0 0.0 1.0 0.0 1.0
8
0.0 1.0 1.0 0.0 1.0 0.0 0.0 1.0
8
1.0 0.0 0.0 1.0 1.0 0.0 0.0 1.0
8
0.572183 0.427817 0.652122 0.347878 0.484516 0.515484 0.399149 0.600851
8
0.929455 0.0705446 0.471237 0.528763 0.643987 0.356013 0.668095 0.331905
8
1.0 0.0 1.0 0.0 0.0 1.0 0.0 1.0
8
0.940991 0.059009 0.600675 0.399325 0.165168 0.834832 0.89859 0.10141
8
0.0 1.0 0.0 1.0 1.0 0.0 0.0 1.0
8
1.0 0.0 0.0 1.0 1.0 0.0 0.0 1.0
8
0.863536 0.136464 0.925587 0.0744135 0.360112 0.639888 0.262684 0.737316
8
0.0 1.0 1.0 0.0 1.0 0.0 1.0 0.0
8
0.326237 0.673763 0.368581 0.631419 0.168089 0.831911 0.852675 0.147325
8
0.0 1.0 1.0 0.0 0.0 1.0 0.0 1.0
8
0.399409 0.600591 0.405614 0.594386 0.164144 0.835856 0.760587 0.239413
8
1.0 0.0 0.0 1.0 1.0 0.0 0.0 1.0
8
0.219055 0.780945 0.873834 0.126166 0.905453 0.0945466 0.579168 0.420832
8
1.0 0.0 1.0 0.0 0.0 1.0 1.0 0.0
8
0.791509 0.208491 0.372303 0.627697 0.194979 0.805021 0.959598 0.0404021
8
1.0 0.0 0.0 1.0 1.0 0.0 1.0 0.0
8
1.0 0.0 0.0 1.0 0.0 1.0 0.0 1.0
8
1.0 0.0 1.0 0.0 0.0 1.0 0.0 1.0
4
0.0 1.0 1.0 0.0
8
1.0 0.0 1.0 0.0 1.0 0.0 0.0 1.0
8
0.0 1.0 0.0 1.0 0.0 1.0 1.0 0.0
8
1.0 0.0 0.0 1.0 1.0 0.0 0.0 1.0
8
1.0 0.0 1.0 0.0 1.0 0.0 0.0 1.0
8
1.0 0.0 0.0 1.0 1.0 0.0 0.0 1.0
8
0.0 1.0 0.0 1.0 1.0 0.0 0.0 1.0
8
0.0 1.0 1.0 0.0 0.0 1.0 0.0 1.0
8
1.0 0.0 0.0 1.0 1.0 0.0 1.0 0.0
8
0.111533 0.888467 0.180101 0.819899 0.696607 0.303393 0.31488 0.68512
8
0.0 1.0 0.0 1.0 0.0 1.0 1.0 0.0
8
0.386642 0.613358 0.319647 0.680353 0.765606 0.234394 0.64251 0.35749
8
0.0 1.0 0.0 1.0 1.0 0.0 0.0 1.0
8
0.876544 0.123456 0.597113 0.402887 0.681737 0.318263 0.350424 0.649576
8
0.0972821 0.902718 0.238233 0.761767 0.000124563 0.999875 0.965067 0.0349334
8
0.0 1.0 1.0 0.0 1.0 0.0 0.0 1.0
8
0.0 1.0 0.0 1.0 1.0 0.0 0.0 1.0
8
1.0 0.0 1.0 0.0 1.0 0.0 0.0 1.0
8
0.0 1.0 1.0 0.0 0.0 1.0 1.0 0.0
8
0.0 1.0 0.0 1.0 1.0 0.0 0.0 1.0
8
0.0 1.0 0.0 1.0 1.0 0.0 1.0 0.0
8
1.0 0.0 1.0 0.0 1.0 0.0 0.0 1.0
8
0.0 1.0 0.0 1.0 0.0 1.0 1.0 0.0
8
0.0 1.0 0.0 1.0 0.0 1.0 1.0 0.0
8
0.0 1.0 1.0 0.0 0.0 1.0 0.0 1.0
4
1.0 0.0 0.0 1.0
8
0.801089 0.198911 0.695426 0.304574 0.838665 0.161335 0.927337 0.0726628
8
1.0 0.0 1.0 0.0 1.0 0.0 0.0 1.0
8
0.0 1.0 1.0 0.0 1.0 0.0 0.0 1.0
8
1.0 0.0 1.0 0.0 1.0 0.0 0.0 1.0
8
1.0 0.0 0.0 1.0 1.0 0.0 1.0 0.0
8
0.0316465 0.968354 0.804257 0.195743 0.544649 0.455351 0.875413 0.124587
8
0.0 1.0 0.0 1.0 1.0 0.0 1.0 0.0
8
0.0 1.0 0.0 1.0 0.0 1.0 1.0 0.0
8
1.0 0.0 1.0 0.0 0.0 1.0 1.0 0.0
8
0.0 1.0 1.0 0.0 0.0 1.0 0.0 1.0
8
1.0 0.0 1.0 0.0 0.0 1.0 1.0 0.0
8
1.0 0.0 0.0 1.0 0.0 1.0 1.0 0.0
8
0.448974 0.551026 0.45655 0.54345 0.638578 0.361422 0.981657 0.0183428
8
0.0 1.0 1.0 0.0 1.0 0.0 1.0 0.0
8
0.218742 0.781258 0.671468 0.328532 0.898819 0.101181 0.256064 0.743936
8
0.0 1.0 1.0 0.0 0.0 1.0 0.0 1.0
8
1.0 0.0 0.0 1.0 0.0 1.0 1.0 0.0
8
1.0 0.0 0.0 1.0 1.0 0.0 1.0 0.0
8
0.0 1.0 1.0 0.0 1.0 0.0 1.0 0.0
8
0.177065 0.822935 0.114097 0.885903 0.587506 0.412494 0.821162 0.178838
8
1.0 0.0 1.0 0.0 0.0 1.0 0.0 1.0
8
0.0 1.0 1.0 0.0 1.0 0.0 0.0 1.0
8
0.0 1.0 0.0 1.0 1.0 0.0 0.0 1.0
8
0.0 1.0 1.0 0.0 0.0 1.0 0.0 1.0
4
1.0 0.0 0.0 1.0
8
0.0 1.0 0.0 1.0 1.0 0.0 1.0 0.0
8
0.0 1.0 0.0 1.0 0.0 1.0 1.0 0.0
8
1.0 0.0 0.0 1.0 1.0 0.0 1.0 0.0
8
1.0 0.0 0.0 1.0 0.0 1.0 0.0 1.0
8
0.0999917 0.900008 0.219489 0.780511 0.943829 0.0561706 0.178073 0.821927
8
0.0 1.0 1.0 0.0 1.0 0.0 0.0 1.0
8
0.623816 0.376184 0.162424 0.837576 0.845195 0.154805 0.996572 0.00342765
8
1.0 0.0 0.0 1.0 0.0 1.0 0.0 1.0
8
0.0 1.0 1.0 0.0 1.0 0.0 1.0 0.0
8
1.0 0.0 1.0 0.0 0.0 1.0 0.0 1.0
8
1.0 0.0 1.0 0.0 1.0 0.0 0.0 1.0
8
1.0 0.0 1.0 0.0 0.0 1.0 1.0 0.0
8
0.0 1.0 1.0 0.0 0.0 1.0 0.0 1.0
8
0.806333 0.193667 0.161959 0.838041 0.417236 0.582764 0.230646 0.769354
8
0.0 1.0 1.0 0.0 0.0 1.0 0.0 1.0
8
1.0 0.0 0.0 1.0 0.0 1.0 1.0 0.0
8
1.0 0.0 0.0 1.0 1.0 0.0 1.0 0.0
8
0.732083 0.267917 0.462891 0.537109 0.777115 0.222885 0.96206 0.0379403
8
1.0 0.0 0.0 1.0 0.0 1.0 1.0 0.0
8
0.0 1.0 0.0 1.0 1.0 0.0 1.0 0.0
8
1.0 0.0 0.0 1.0 1.0 0.0 1.0 0.0
8
0.389395 0.610605 0.82622 0.17378 0.271948 0.728052 0.148596 0.851404
8
0.754179 0.245821 0.362928 0.637072 0.294404 0.705596 0.423304 0.576696
8
0.0 1.0 1.0 0.0 0.0 1.0 0.0 1.0